PARAMETER_FILE = /home/jyf/ROS_project/RACER-test/src/RACER-main/swarm_exploration/utils/lkh_mtsp_solver/resource/amtsp2_2.par
PROBLEM_FILE = /home/jyf/ROS_project/RACER-test/src/RACER-main/swarm_exploration/utils/lkh_mtsp_solver/resource/amtsp2_2.atsp
Successes/Runs = 1/0 
Cost.min = -99088, Cost.avg = -99088.00, Cost.max = -99088
Gap.min = -0.0000%, Gap.avg = -0.0000%, Gap.max = -0.0000%
Trials.min = 0, Trials.avg = 0.0, Trials.max = 0
Time.min = 0.00 sec., Time.avg = 0.00 sec., Time.max = 0.00 sec.
Best ATSP solution:
  Cost = 0_-99088

PARAMETER_FILE = /home/jyf/ROS_project/RACER-test/src/RACER-main/swarm_exploration/utils/lkh_mtsp_solver/resource/amtsp2_2.par
PROBLEM_FILE = /home/jyf/ROS_project/RACER-test/src/RACER-main/swarm_exploration/utils/lkh_mtsp_solver/resource/amtsp2_2.atsp
Successes/Runs = 1/0 
Cost.min = -99587, Cost.avg = -99587.00, Cost.max = -99587
Gap.min = -0.0000%, Gap.avg = -0.0000%, Gap.max = -0.0000%
Trials.min = 0, Trials.avg = 0.0, Trials.max = 0
Time.min = 0.00 sec., Time.avg = 0.00 sec., Time.max = 0.00 sec.
Best ATSP solution:
  Cost = 0_-99587

PARAMETER_FILE = /home/jyf/ROS_project/RACER-test/src/RACER-main/swarm_exploration/utils/lkh_mtsp_solver/resource/amtsp2_2.par
PROBLEM_FILE = /home/jyf/ROS_project/RACER-test/src/RACER-main/swarm_exploration/utils/lkh_mtsp_solver/resource/amtsp2_2.atsp
Successes/Runs = 1/0 
Cost.min = -99457, Cost.avg = -99457.00, Cost.max = -99457
Gap.min = -0.0000%, Gap.avg = -0.0000%, Gap.max = -0.0000%
Trials.min = 0, Trials.avg = 0.0, Trials.max = 0
Time.min = 0.00 sec., Time.avg = 0.00 sec., Time.max = 0.00 sec.
Best ATSP solution:
  Cost = 0_-99457

PARAMETER_FILE = /home/jyf/ROS_project/RACER-test/src/RACER-main/swarm_exploration/utils/lkh_mtsp_solver/resource/amtsp2_2.par
PROBLEM_FILE = /home/jyf/ROS_project/RACER-test/src/RACER-main/swarm_exploration/utils/lkh_mtsp_solver/resource/amtsp2_2.atsp
Successes/Runs = 1/0 
Cost.min = -99957, Cost.avg = -99957.00, Cost.max = -99957
Gap.min = -0.0000%, Gap.avg = -0.0000%, Gap.max = -0.0000%
Trials.min = 0, Trials.avg = 0.0, Trials.max = 0
Time.min = 0.00 sec., Time.avg = 0.00 sec., Time.max = 0.00 sec.
Best ATSP solution:
  Cost = 0_-99957

PARAMETER_FILE = /home/jyf/ROS_project/RACER-test/src/RACER-main/swarm_exploration/utils/lkh_mtsp_solver/resource/amtsp2_2.par
PROBLEM_FILE = /home/jyf/ROS_project/RACER-test/src/RACER-main/swarm_exploration/utils/lkh_mtsp_solver/resource/amtsp2_2.atsp
Successes/Runs = 1/0 
Cost.min = -99951, Cost.avg = -99951.00, Cost.max = -99951
Gap.min = -0.0000%, Gap.avg = -0.0000%, Gap.max = -0.0000%
Trials.min = 0, Trials.avg = 0.0, Trials.max = 0
Time.min = 0.00 sec., Time.avg = 0.00 sec., Time.max = 0.00 sec.
Best ATSP solution:
  Cost = 0_-99951

PARAMETER_FILE = /home/jyf/ROS_project/RACER-test/src/RACER-main/swarm_exploration/utils/lkh_mtsp_solver/resource/amtsp2_2.par
PROBLEM_FILE = /home/jyf/ROS_project/RACER-test/src/RACER-main/swarm_exploration/utils/lkh_mtsp_solver/resource/amtsp2_2.atsp
Successes/Runs = 1/0 
Cost.min = -99262, Cost.avg = -99262.00, Cost.max = -99262
Gap.min = -0.0000%, Gap.avg = -0.0000%, Gap.max = -0.0000%
Trials.min = 0, Trials.avg = 0.0, Trials.max = 0
Time.min = 0.00 sec., Time.avg = 0.00 sec., Time.max = 0.00 sec.
Best ATSP solution:
  Cost = 0_-99262

PARAMETER_FILE = /home/jyf/ROS_project/RACER-test/src/RACER-main/swarm_exploration/utils/lkh_mtsp_solver/resource/amtsp2_2.par
PROBLEM_FILE = /home/jyf/ROS_project/RACER-test/src/RACER-main/swarm_exploration/utils/lkh_mtsp_solver/resource/amtsp2_2.atsp
Successes/Runs = 1/0 
Cost.min = -99766, Cost.avg = -99766.00, Cost.max = -99766
Gap.min = -0.0000%, Gap.avg = -0.0000%, Gap.max = -0.0000%
Trials.min = 0, Trials.avg = 0.0, Trials.max = 0
Time.min = 0.00 sec., Time.avg = 0.00 sec., Time.max = 0.00 sec.
Best ATSP solution:
  Cost = 0_-99766

PARAMETER_FILE = /home/jyf/ROS_project/RACER-test/src/RACER-main/swarm_exploration/utils/lkh_mtsp_solver/resource/amtsp2_2.par
PROBLEM_FILE = /home/jyf/ROS_project/RACER-test/src/RACER-main/swarm_exploration/utils/lkh_mtsp_solver/resource/amtsp2_2.atsp
Successes/Runs = 1/0 
Cost.min = -99982, Cost.avg = -99982.00, Cost.max = -99982
Gap.min = -0.0000%, Gap.avg = -0.0000%, Gap.max = -0.0000%
Trials.min = 0, Trials.avg = 0.0, Trials.max = 0
Time.min = 0.00 sec., Time.avg = 0.00 sec., Time.max = 0.00 sec.
Best ATSP solution:
  Cost = 0_-99982

PARAMETER_FILE = /home/jyf/ROS_project/RACER-test/src/RACER-main/swarm_exploration/utils/lkh_mtsp_solver/resource/amtsp2_2.par
PROBLEM_FILE = /home/jyf/ROS_project/RACER-test/src/RACER-main/swarm_exploration/utils/lkh_mtsp_solver/resource/amtsp2_2.atsp
Successes/Runs = 1/0 
Cost.min = -100022, Cost.avg = -100022.00, Cost.max = -100022
Gap.min = -0.0000%, Gap.avg = -0.0000%, Gap.max = -0.0000%
Trials.min = 0, Trials.avg = 0.0, Trials.max = 0
Time.min = 0.00 sec., Time.avg = 0.00 sec., Time.max = 0.00 sec.
Best ATSP solution:
  Cost = 0_-100022

PARAMETER_FILE = /home/jyf/ROS_project/RACER-test/src/RACER-main/swarm_exploration/utils/lkh_mtsp_solver/resource/amtsp2_2.par
PROBLEM_FILE = /home/jyf/ROS_project/RACER-test/src/RACER-main/swarm_exploration/utils/lkh_mtsp_solver/resource/amtsp2_2.atsp
Successes/Runs = 1/0 
Cost.min = -100936, Cost.avg = -100936.00, Cost.max = -100936
Gap.min = -0.0000%, Gap.avg = -0.0000%, Gap.max = -0.0000%
Trials.min = 0, Trials.avg = 0.0, Trials.max = 0
Time.min = 0.00 sec., Time.avg = 0.00 sec., Time.max = 0.00 sec.
Best ATSP solution:
  Cost = 0_-100936

PARAMETER_FILE = /home/jyf/ROS_project/RACER-test/src/RACER-main/swarm_exploration/utils/lkh_mtsp_solver/resource/amtsp_2.par
PROBLEM_FILE = /home/jyf/ROS_project/RACER-test/src/RACER-main/swarm_exploration/utils/lkh_mtsp_solver/resource/amtsp_2.atsp
Successes/Runs = 1/0 
Cost.min = -99610, Cost.avg = -99610.00, Cost.max = -99610
Gap.min = -0.0000%, Gap.avg = -0.0000%, Gap.max = -0.0000%
Trials.min = 0, Trials.avg = 0.0, Trials.max = 0
Time.min = 0.00 sec., Time.avg = 0.00 sec., Time.max = 0.00 sec.
Best ATSP solution:
  Cost = 0_-99610

PARAMETER_FILE = /home/jyf/ROS_project/RACER-test/src/RACER-main/swarm_exploration/utils/lkh_mtsp_solver/resource/amtsp2_2.par
PROBLEM_FILE = /home/jyf/ROS_project/RACER-test/src/RACER-main/swarm_exploration/utils/lkh_mtsp_solver/resource/amtsp2_2.atsp
Successes/Runs = 1/0 
Cost.min = -100563, Cost.avg = -100563.00, Cost.max = -100563
Gap.min = -0.0000%, Gap.avg = -0.0000%, Gap.max = -0.0000%
Trials.min = 0, Trials.avg = 0.0, Trials.max = 0
Time.min = 0.00 sec., Time.avg = 0.00 sec., Time.max = 0.00 sec.
Best ATSP solution:
  Cost = 0_-100563

PARAMETER_FILE = /home/jyf/ROS_project/RACER-test/src/RACER-main/swarm_exploration/utils/lkh_mtsp_solver/resource/amtsp_2.par
PROBLEM_FILE = /home/jyf/ROS_project/RACER-test/src/RACER-main/swarm_exploration/utils/lkh_mtsp_solver/resource/amtsp_2.atsp
Successes/Runs = 1/0 
Cost.min = -99520, Cost.avg = -99520.00, Cost.max = -99520
Gap.min = -0.0000%, Gap.avg = -0.0000%, Gap.max = -0.0000%
Trials.min = 0, Trials.avg = 0.0, Trials.max = 0
Time.min = 0.00 sec., Time.avg = 0.00 sec., Time.max = 0.00 sec.
Best ATSP solution:
  Cost = 0_-99520

PARAMETER_FILE = /home/jyf/ROS_project/RACER-test/src/RACER-main/swarm_exploration/utils/lkh_mtsp_solver/resource/amtsp2_2.par
PROBLEM_FILE = /home/jyf/ROS_project/RACER-test/src/RACER-main/swarm_exploration/utils/lkh_mtsp_solver/resource/amtsp2_2.atsp
Successes/Runs = 1/0 
Cost.min = -99989, Cost.avg = -99989.00, Cost.max = -99989
Gap.min = -0.0000%, Gap.avg = -0.0000%, Gap.max = -0.0000%
Trials.min = 0, Trials.avg = 0.0, Trials.max = 0
Time.min = 0.00 sec., Time.avg = 0.00 sec., Time.max = 0.00 sec.
Best ATSP solution:
  Cost = 0_-99989

PARAMETER_FILE = /home/jyf/ROS_project/RACER-test/src/RACER-main/swarm_exploration/utils/lkh_mtsp_solver/resource/amtsp_2.par
PROBLEM_FILE = /home/jyf/ROS_project/RACER-test/src/RACER-main/swarm_exploration/utils/lkh_mtsp_solver/resource/amtsp_2.atsp
Successes/Runs = 0/1 
Cost.min = -199215, Cost.avg = -199215.00, Cost.max = -199215
Gap.min = -0.0000%, Gap.avg = -0.0000%, Gap.max = -0.0000%
Trials.min = 12, Trials.avg = 12.0, Trials.max = 12
Time.min = 0.00 sec., Time.avg = 0.00 sec., Time.max = 0.00 sec.
Best ATSP solution:
  Cost = 0_-199215

PARAMETER_FILE = /home/jyf/ROS_project/RACER-test/src/RACER-main/swarm_exploration/utils/lkh_mtsp_solver/resource/amtsp2_2.par
PROBLEM_FILE = /home/jyf/ROS_project/RACER-test/src/RACER-main/swarm_exploration/utils/lkh_mtsp_solver/resource/amtsp2_2.atsp
Successes/Runs = 1/0 
Cost.min = -100033, Cost.avg = -100033.00, Cost.max = -100033
Gap.min = -0.0000%, Gap.avg = -0.0000%, Gap.max = -0.0000%
Trials.min = 12, Trials.avg = 12.0, Trials.max = 12
Time.min = 0.00 sec., Time.avg = 0.00 sec., Time.max = 0.00 sec.
Best ATSP solution:
  Cost = 0_-100033

PARAMETER_FILE = /home/jyf/ROS_project/RACER-test/src/RACER-main/swarm_exploration/utils/lkh_mtsp_solver/resource/amtsp_2.par
PROBLEM_FILE = /home/jyf/ROS_project/RACER-test/src/RACER-main/swarm_exploration/utils/lkh_mtsp_solver/resource/amtsp_2.atsp
Successes/Runs = 1/0 
Cost.min = -199275, Cost.avg = -199275.00, Cost.max = -199275
Gap.min = -0.0000%, Gap.avg = -0.0000%, Gap.max = -0.0000%
Trials.min = 12, Trials.avg = 12.0, Trials.max = 12
Time.min = 0.00 sec., Time.avg = 0.00 sec., Time.max = 0.00 sec.
Best ATSP solution:
  Cost = 0_-199275

PARAMETER_FILE = /home/jyf/ROS_project/RACER-test/src/RACER-main/swarm_exploration/utils/lkh_mtsp_solver/resource/amtsp2_2.par
PROBLEM_FILE = /home/jyf/ROS_project/RACER-test/src/RACER-main/swarm_exploration/utils/lkh_mtsp_solver/resource/amtsp2_2.atsp
Successes/Runs = 1/0 
Cost.min = -101742, Cost.avg = -101742.00, Cost.max = -101742
Gap.min = -0.0000%, Gap.avg = -0.0000%, Gap.max = -0.0000%
Trials.min = 12, Trials.avg = 12.0, Trials.max = 12
Time.min = 0.00 sec., Time.avg = 0.00 sec., Time.max = 0.00 sec.
Best ATSP solution:
  Cost = 0_-101742

PARAMETER_FILE = /home/jyf/ROS_project/RACER-test/src/RACER-main/swarm_exploration/utils/lkh_mtsp_solver/resource/amtsp_2.par
PROBLEM_FILE = /home/jyf/ROS_project/RACER-test/src/RACER-main/swarm_exploration/utils/lkh_mtsp_solver/resource/amtsp_2.atsp
Successes/Runs = 1/0 
Cost.min = -199363, Cost.avg = -199363.00, Cost.max = -199363
Gap.min = -0.0000%, Gap.avg = -0.0000%, Gap.max = -0.0000%
Trials.min = 12, Trials.avg = 12.0, Trials.max = 12
Time.min = 0.00 sec., Time.avg = 0.00 sec., Time.max = 0.00 sec.
Best ATSP solution:
  Cost = 0_-199363

PARAMETER_FILE = /home/jyf/ROS_project/RACER-test/src/RACER-main/swarm_exploration/utils/lkh_mtsp_solver/resource/amtsp2_2.par
PROBLEM_FILE = /home/jyf/ROS_project/RACER-test/src/RACER-main/swarm_exploration/utils/lkh_mtsp_solver/resource/amtsp2_2.atsp
Successes/Runs = 0/1 
Cost.min = -101481, Cost.avg = -101481.00, Cost.max = -101481
Gap.min = -0.0000%, Gap.avg = -0.0000%, Gap.max = -0.0000%
Trials.min = 20, Trials.avg = 20.0, Trials.max = 20
Time.min = 0.00 sec., Time.avg = 0.00 sec., Time.max = 0.00 sec.
Best ATSP solution:
  Cost = 0_-101481

PARAMETER_FILE = /home/jyf/ROS_project/RACER-test/src/RACER-main/swarm_exploration/utils/lkh_mtsp_solver/resource/amtsp_2.par
PROBLEM_FILE = /home/jyf/ROS_project/RACER-test/src/RACER-main/swarm_exploration/utils/lkh_mtsp_solver/resource/amtsp_2.atsp
Successes/Runs = 1/0 
Cost.min = -199423, Cost.avg = -199423.00, Cost.max = -199423
Gap.min = -0.0000%, Gap.avg = -0.0000%, Gap.max = -0.0000%
Trials.min = 20, Trials.avg = 20.0, Trials.max = 20
Time.min = 0.00 sec., Time.avg = 0.00 sec., Time.max = 0.00 sec.
Best ATSP solution:
  Cost = 0_-199423

